Base=4;
C=76;
start_setup=[|0,0,0,0,0,13,0,4,0,0,0,0,0,0,0,16
             |0,0,0,0,0,0,0,0,0,0,0,0,0,0,0,11
             |0,4,0,0,0,0,0,0,0,0,0,0,0,0,0,0
             |0,0,0,0,0,0,0,0,0,0,0,0,0,0,0,0
             |0,0,0,4,0,0,0,0,0,0,0,0,11,0,15,0
             |0,0,0,0,0,0,0,0,0,0,0,0,0,0,0,0
             |0,0,0,0,0,0,9,0,0,0,0,11,0,0,7,0
             |15,0,0,0,0,0,0,0,0,0,0,0,0,0,1,0
             |0,0,0,0,0,0,0,0,13,0,0,0,0,0,0,0
             |0,0,0,0,0,0,0,0,0,0,0,0,0,0,0,7
             |0,0,0,0,0,0,0,0,0,1,0,0,14,0,0,0
             |0,0,0,0,0,0,0,0,5,0,0,0,0,0,0,0
             |4,0,0,0,0,7,0,0,0,0,0,9,0,0,0,0
             |0,0,0,0,0,0,0,0,4,0,0,0,0,11,0,0
             |0,11,10,0,0,0,0,1,0,15,0,0,0,0,0,0
             |0,0,0,0,0,0,0,9,0,7,0,0,4,0,0,0
|];
target_sum=[20,29,5,11,64,58,31,12,26,19,17,57,11,42,2,17,44,7,72,27,21,26,51,5,80,45,26,6,14,63,19,50,2,55,16,48,16,50,98,43,7,28,21,8,38,47,15,42,41,24,21,105,5,7,38,3,17,49,9,54,23,44,71,1,16,26,10,12,21,16,14,5,8,5,19,1];
tile2cage=[
25,25,25,26,26,26,68,68,48,48,45,45,45,38,38,38
,25,25,40,40,40,26,30,30,48,48,45,45,31,31,38,38
,25,25,25,40,40,40,30,30,30,48,6,6,6,17,17,17
,25,25,12,12,12,42,18,30,62,6,6,6,64,17,17,17
,25,76,12,12,12,42,42,19,62,65,50,9,9,9,69,69
,75,75,66,66,66,66,19,19,62,62,50,50,61,23,23,23
,5,46,46,33,20,20,20,19,62,62,55,55,61,47,47,23
,5,46,46,43,14,14,14,19,35,35,55,59,37,37,47,47
,5,5,24,43,14,63,70,19,19,19,55,59,37,58,27,27
,5,5,24,54,54,63,63,73,16,16,4,58,58,58,27,49
,5,36,36,36,63,63,22,22,21,21,21,60,60,60,13,49
,41,36,36,57,63,63,22,71,72,21,10,60,60,60,49,49
,39,53,53,57,63,2,52,52,52,52,10,67,7,7,34,49
,39,39,39,74,63,2,52,52,52,56,15,67,8,34,34,34
,39,39,39,39,2,2,52,1,52,52,29,51,51,11,34,34
,39,39,32,32,32,32,1,1,44,52,28,3,11,11,11,11];
